p cnf 846 2632
-3 -4 51 0
3 -4 -51 0
-3 4 -51 0
3 4 51 0
5 8 52 0
-5 8 -52 0
5 -8 -52 0
-5 -8 52 0
-11 -13 53 0
11 -13 -53 0
-11 13 -53 0
11 13 53 0
-14 -18 54 0
14 -18 -54 0
-14 18 -54 0
14 18 54 0
-19 21 55 0
19 21 -55 0
-19 -21 -55 0
19 -21 55 0
-22 23 56 0
22 23 -56 0
-22 -23 -56 0
22 -23 56 0
25 -29 57 0
-25 -29 -57 0
25 29 -57 0
-25 29 57 0
-31 -33 58 0
31 -33 -58 0
-31 33 -58 0
31 33 58 0
34 36 59 0
-34 36 -59 0
34 -36 -59 0
-34 -36 59 0
-38 -40 60 0
38 -40 -60 0
-38 40 -60 0
38 40 60 0
41 -42 61 0
-41 -42 -61 0
41 42 -61 0
-41 42 61 0
44 45 62 0
-44 45 -62 0
44 -45 -62 0
-44 -45 62 0
51 -52 63 0
-51 -52 -63 0
51 52 -63 0
-51 52 63 0
53 -54 64 0
-53 -54 -64 0
53 54 -64 0
-53 54 64 0
55 -56 65 0
-55 -56 -65 0
55 56 -65 0
-55 56 65 0
57 -58 66 0
-57 -58 -66 0
57 58 -66 0
-57 58 66 0
59 -60 67 0
-59 -60 -67 0
59 60 -67 0
-59 60 67 0
61 -62 68 0
-61 -62 -68 0
61 62 -68 0
-61 62 68 0
63 -64 69 0
-63 -64 -69 0
63 64 -69 0
-63 64 69 0
65 -66 70 0
-65 -66 -70 0
65 66 -70 0
-65 66 70 0
67 -68 71 0
-67 -68 -71 0
67 68 -71 0
-67 68 71 0
-69 -70 71 0
69 -70 -71 0
-69 70 -71 0
69 70 71 0
2 3 72 0
-2 3 -72 0
2 -3 -72 0
-2 -3 72 0
-4 5 73 0
4 5 -73 0
-4 -5 -73 0
4 -5 73 0
9 13 74 0
-9 13 -74 0
9 -13 -74 0
-9 -13 74 0
-17 18 75 0
17 18 -75 0
-17 -18 -75 0
17 -18 75 0
-21 -25 76 0
21 -25 -76 0
-21 25 -76 0
21 25 76 0
-26 27 77 0
26 27 -77 0
-26 -27 -77 0
26 -27 77 0
-30 31 78 0
30 31 -78 0
-30 -31 -78 0
30 -31 78 0
32 33 79 0
-32 33 -79 0
32 -33 -79 0
-32 -33 79 0
-36 37 80 0
36 37 -80 0
-36 -37 -80 0
36 -37 80 0
40 42 81 0
-40 42 -81 0
40 -42 -81 0
-40 -42 81 0
45 -48 82 0
-45 -48 -82 0
45 48 -82 0
-45 48 82 0
72 -73 83 0
-72 -73 -83 0
72 73 -83 0
-72 73 83 0
74 -75 84 0
-74 -75 -84 0
74 75 -84 0
-74 75 84 0
76 -77 85 0
-76 -77 -85 0
76 77 -85 0
-76 77 85 0
78 -79 86 0
-78 -79 -86 0
78 79 -86 0
-78 79 86 0
80 -81 87 0
-80 -81 -87 0
80 81 -87 0
-80 81 87 0
82 -83 88 0
-82 -83 -88 0
82 83 -88 0
-82 83 88 0
84 -85 89 0
-84 -85 -89 0
84 85 -89 0
-84 85 89 0
86 -87 90 0
-86 -87 -90 0
86 87 -90 0
-86 87 90 0
-88 -89 90 0
88 -89 -90 0
-88 89 -90 0
88 89 90 0
1 4 91 0
-1 4 -91 0
1 -4 -91 0
-1 -4 91 0
5 6 92 0
-5 6 -92 0
5 -6 -92 0
-5 -6 92 0
-7 -8 93 0
7 -8 -93 0
-7 8 -93 0
7 8 93 0
-9 -11 94 0
9 -11 -94 0
-9 11 -94 0
9 11 94 0
-14 15 95 0
14 15 -95 0
-14 -15 -95 0
14 -15 95 0
16 18 96 0
-16 18 -96 0
16 -18 -96 0
-16 -18 96 0
20 24 97 0
-20 24 -97 0
20 -24 -97 0
-20 -24 97 0
25 29 98 0
-25 29 -98 0
25 -29 -98 0
-25 -29 98 0
33 38 99 0
-33 38 -99 0
33 -38 -99 0
-33 -38 99 0
-39 -41 100 0
39 -41 -100 0
-39 41 -100 0
39 41 100 0
42 44 101 0
-42 44 -101 0
42 -44 -101 0
-42 -44 101 0
-45 46 102 0
45 46 -102 0
-45 -46 -102 0
45 -46 102 0
47 -49 103 0
-47 -49 -103 0
47 49 -103 0
-47 49 103 0
90 -91 104 0
-90 -91 -104 0
90 91 -104 0
-90 91 104 0
92 -93 105 0
-92 -93 -105 0
92 93 -105 0
-92 93 105 0
94 -95 106 0
-94 -95 -106 0
94 95 -106 0
-94 95 106 0
96 -97 107 0
-96 -97 -107 0
96 97 -107 0
-96 97 107 0
98 -99 108 0
-98 -99 -108 0
98 99 -108 0
-98 99 108 0
100 -101 109 0
-100 -101 -109 0
100 101 -109 0
-100 101 109 0
102 -103 110 0
-102 -103 -110 0
102 103 -110 0
-102 103 110 0
104 -105 111 0
-104 -105 -111 0
104 105 -111 0
-104 105 111 0
106 -107 112 0
-106 -107 -112 0
106 107 -112 0
-106 107 112 0
108 -109 113 0
-108 -109 -113 0
108 109 -113 0
-108 109 113 0
110 -111 114 0
-110 -111 -114 0
110 111 -114 0
-110 111 114 0
112 -113 115 0
-112 -113 -115 0
112 113 -115 0
-112 113 115 0
114 115 0
-114 -115 0
-2 6 116 0
2 6 -116 0
-2 -6 -116 0
2 -6 116 0
-11 12 117 0
11 12 -117 0
-11 -12 -117 0
11 -12 117 0
13 -15 118 0
-13 -15 -118 0
13 15 -118 0
-13 15 118 0
17 -18 119 0
-17 -18 -119 0
17 18 -119 0
-17 18 119 0
-20 22 120 0
20 22 -120 0
-20 -22 -120 0
20 -22 120 0
23 -25 121 0
-23 -25 -121 0
23 25 -121 0
-23 25 121 0
-27 28 122 0
27 28 -122 0
-27 -28 -122 0
27 -28 122 0
32 33 123 0
-32 33 -123 0
32 -33 -123 0
-32 -33 123 0
-34 -35 124 0
34 -35 -124 0
-34 35 -124 0
34 35 124 0
36 -37 125 0
-36 -37 -125 0
36 37 -125 0
-36 37 125 0
39 -40 126 0
-39 -40 -126 0
39 40 -126 0
-39 40 126 0
43 45 127 0
-43 45 -127 0
43 -45 -127 0
-43 -45 127 0
46 -47 128 0
-46 -47 -128 0
46 47 -128 0
-46 47 128 0
116 -117 129 0
-116 -117 -129 0
116 117 -129 0
-116 117 129 0
118 -119 130 0
-118 -119 -130 0
118 119 -130 0
-118 119 130 0
120 -121 131 0
-120 -121 -131 0
120 121 -131 0
-120 121 131 0
122 -123 132 0
-122 -123 -132 0
122 123 -132 0
-122 123 132 0
124 -125 133 0
-124 -125 -133 0
124 125 -133 0
-124 125 133 0
126 -127 134 0
-126 -127 -134 0
126 127 -134 0
-126 127 134 0
128 -129 135 0
-128 -129 -135 0
128 129 -135 0
-128 129 135 0
130 -131 136 0
-130 -131 -136 0
130 131 -136 0
-130 131 136 0
132 -133 137 0
-132 -133 -137 0
132 133 -137 0
-132 133 137 0
134 -135 138 0
-134 -135 -138 0
134 135 -138 0
-134 135 138 0
136 -137 139 0
-136 -137 -139 0
136 137 -139 0
-136 137 139 0
138 139 0
-138 -139 0
1 -5 140 0
-1 -5 -140 0
1 5 -140 0
-1 5 140 0
-7 8 141 0
7 8 -141 0
-7 -8 -141 0
7 -8 141 0
9 -10 142 0
-9 -10 -142 0
9 10 -142 0
-9 10 142 0
-11 13 143 0
11 13 -143 0
-11 -13 -143 0
11 -13 143 0
14 -17 144 0
-14 -17 -144 0
14 17 -144 0
-14 17 144 0
-20 21 145 0
20 21 -145 0
-20 -21 -145 0
20 -21 145 0
-22 -23 146 0
22 -23 -146 0
-22 23 -146 0
22 23 146 0
25 -27 147 0
-25 -27 -147 0
25 27 -147 0
-25 27 147 0
30 -37 148 0
-30 -37 -148 0
30 37 -148 0
-30 37 148 0
38 46 149 0
-38 46 -149 0
38 -46 -149 0
-38 -46 149 0
139 -140 150 0
-139 -140 -150 0
139 140 -150 0
-139 140 150 0
141 -142 151 0
-141 -142 -151 0
141 142 -151 0
-141 142 151 0
143 -144 152 0
-143 -144 -152 0
143 144 -152 0
-143 144 152 0
145 -146 153 0
-145 -146 -153 0
145 146 -153 0
-145 146 153 0
147 -148 154 0
-147 -148 -154 0
147 148 -154 0
-147 148 154 0
149 -150 155 0
-149 -150 -155 0
149 150 -155 0
-149 150 155 0
151 -152 156 0
-151 -152 -156 0
151 152 -156 0
-151 152 156 0
153 -154 157 0
-153 -154 -157 0
153 154 -157 0
-153 154 157 0
-155 -156 157 0
155 -156 -157 0
-155 156 -157 0
155 156 157 0
1 -4 158 0
-1 -4 -158 0
1 4 -158 0
-1 4 158 0
7 8 159 0
-7 8 -159 0
7 -8 -159 0
-7 -8 159 0
-9 -10 160 0
9 -10 -160 0
-9 10 -160 0
9 10 160 0
11 12 161 0
-11 12 -161 0
11 -12 -161 0
-11 -12 161 0
-14 -16 162 0
14 -16 -162 0
-14 16 -162 0
14 16 162 0
-19 -25 163 0
19 -25 -163 0
-19 25 -163 0
19 25 163 0
-26 -27 164 0
26 -27 -164 0
-26 27 -164 0
26 27 164 0
29 -32 165 0
-29 -32 -165 0
29 32 -165 0
-29 32 165 0
-34 -36 166 0
34 -36 -166 0
-34 36 -166 0
34 36 166 0
-37 -40 167 0
37 -40 -167 0
-37 40 -167 0
37 40 167 0
-41 -43 168 0
41 -43 -168 0
-41 43 -168 0
41 43 168 0
45 47 169 0
-45 47 -169 0
45 -47 -169 0
-45 -47 169 0
49 -50 170 0
-49 -50 -170 0
49 50 -170 0
-49 50 170 0
158 -159 171 0
-158 -159 -171 0
158 159 -171 0
-158 159 171 0
160 -161 172 0
-160 -161 -172 0
160 161 -172 0
-160 161 172 0
162 -163 173 0
-162 -163 -173 0
162 163 -173 0
-162 163 173 0
164 -165 174 0
-164 -165 -174 0
164 165 -174 0
-164 165 174 0
166 -167 175 0
-166 -167 -175 0
166 167 -175 0
-166 167 175 0
168 -169 176 0
-168 -169 -176 0
168 169 -176 0
-168 169 176 0
170 -171 177 0
-170 -171 -177 0
170 171 -177 0
-170 171 177 0
172 -173 178 0
-172 -173 -178 0
172 173 -178 0
-172 173 178 0
174 -175 179 0
-174 -175 -179 0
174 175 -179 0
-174 175 179 0
176 -177 180 0
-176 -177 -180 0
176 177 -180 0
-176 177 180 0
178 -179 181 0
-178 -179 -181 0
178 179 -181 0
-178 179 181 0
180 181 0
-180 -181 0
-1 -2 182 0
1 -2 -182 0
-1 2 -182 0
1 2 182 0
-4 -7 183 0
4 -7 -183 0
-4 7 -183 0
4 7 183 0
10 12 184 0
-10 12 -184 0
10 -12 -184 0
-10 -12 184 0
-13 14 185 0
13 14 -185 0
-13 -14 -185 0
13 -14 185 0
15 -19 186 0
-15 -19 -186 0
15 19 -186 0
-15 19 186 0
-21 -22 187 0
21 -22 -187 0
-21 22 -187 0
21 22 187 0
-29 -30 188 0
29 -30 -188 0
-29 30 -188 0
29 30 188 0
-31 -33 189 0
31 -33 -189 0
-31 33 -189 0
31 33 189 0
34 35 190 0
-34 35 -190 0
34 -35 -190 0
-34 -35 190 0
-36 -38 191 0
36 -38 -191 0
-36 38 -191 0
36 38 191 0
39 40 192 0
-39 40 -192 0
39 -40 -192 0
-39 -40 192 0
42 -44 193 0
-42 -44 -193 0
42 44 -193 0
-42 44 193 0
-48 50 194 0
48 50 -194 0
-48 -50 -194 0
48 -50 194 0
182 -183 195 0
-182 -183 -195 0
182 183 -195 0
-182 183 195 0
184 -185 196 0
-184 -185 -196 0
184 185 -196 0
-184 185 196 0
186 -187 197 0
-186 -187 -197 0
186 187 -197 0
-186 187 197 0
188 -189 198 0
-188 -189 -198 0
188 189 -198 0
-188 189 198 0
190 -191 199 0
-190 -191 -199 0
190 191 -199 0
-190 191 199 0
192 -193 200 0
-192 -193 -200 0
192 193 -200 0
-192 193 200 0
194 -195 201 0
-194 -195 -201 0
194 195 -201 0
-194 195 201 0
196 -197 202 0
-196 -197 -202 0
196 197 -202 0
-196 197 202 0
198 -199 203 0
-198 -199 -203 0
198 199 -203 0
-198 199 203 0
200 -201 204 0
-200 -201 -204 0
200 201 -204 0
-200 201 204 0
202 -203 205 0
-202 -203 -205 0
202 203 -205 0
-202 203 205 0
204 205 0
-204 -205 0
4 -5 206 0
-4 -5 -206 0
4 5 -206 0
-4 5 206 0
-6 10 207 0
6 10 -207 0
-6 -10 -207 0
6 -10 207 0
-11 15 208 0
11 15 -208 0
-11 -15 -208 0
11 -15 208 0
18 -24 209 0
-18 -24 -209 0
18 24 -209 0
-18 24 209 0
-25 30 210 0
25 30 -210 0
-25 -30 -210 0
25 -30 210 0
32 33 211 0
-32 33 -211 0
32 -33 -211 0
-32 -33 211 0
34 -36 212 0
-34 -36 -212 0
34 36 -212 0
-34 36 212 0
-37 38 213 0
37 38 -213 0
-37 -38 -213 0
37 -38 213 0
-39 -40 214 0
39 -40 -214 0
-39 40 -214 0
39 40 214 0
42 46 215 0
-42 46 -215 0
42 -46 -215 0
-42 -46 215 0
205 -206 216 0
-205 -206 -216 0
205 206 -216 0
-205 206 216 0
207 -208 217 0
-207 -208 -217 0
207 208 -217 0
-207 208 217 0
209 -210 218 0
-209 -210 -218 0
209 210 -218 0
-209 210 218 0
211 -212 219 0
-211 -212 -219 0
211 212 -219 0
-211 212 219 0
213 -214 220 0
-213 -214 -220 0
213 214 -220 0
-213 214 220 0
215 -216 221 0
-215 -216 -221 0
215 216 -221 0
-215 216 221 0
217 -218 222 0
-217 -218 -222 0
217 218 -222 0
-217 218 222 0
219 -220 223 0
-219 -220 -223 0
219 220 -223 0
-219 220 223 0
-221 -222 223 0
221 -222 -223 0
-221 222 -223 0
221 222 223 0
1 -4 224 0
-1 -4 -224 0
1 4 -224 0
-1 4 224 0
-6 -7 225 0
6 -7 -225 0
-6 7 -225 0
6 7 225 0
-10 11 226 0
10 11 -226 0
-10 -11 -226 0
10 -11 226 0
-14 -15 227 0
14 -15 -227 0
-14 15 -227 0
14 15 227 0
-16 -18 228 0
16 -18 -228 0
-16 18 -228 0
16 18 228 0
19 20 229 0
-19 20 -229 0
19 -20 -229 0
-19 -20 229 0
-21 -22 230 0
21 -22 -230 0
-21 22 -230 0
21 22 230 0
23 26 231 0
-23 26 -231 0
23 -26 -231 0
-23 -26 231 0
27 31 232 0
-27 31 -232 0
27 -31 -232 0
-27 -31 232 0
34 35 233 0
-34 35 -233 0
34 -35 -233 0
-34 -35 233 0
36 38 234 0
-36 38 -234 0
36 -38 -234 0
-36 -38 234 0
40 41 235 0
-40 41 -235 0
40 -41 -235 0
-40 -41 235 0
-42 43 236 0
42 43 -236 0
-42 -43 -236 0
42 -43 236 0
48 50 237 0
-48 50 -237 0
48 -50 -237 0
-48 -50 237 0
224 -225 238 0
-224 -225 -238 0
224 225 -238 0
-224 225 238 0
226 -227 239 0
-226 -227 -239 0
226 227 -239 0
-226 227 239 0
228 -229 240 0
-228 -229 -240 0
228 229 -240 0
-228 229 240 0
230 -231 241 0
-230 -231 -241 0
230 231 -241 0
-230 231 241 0
232 -233 242 0
-232 -233 -242 0
232 233 -242 0
-232 233 242 0
234 -235 243 0
-234 -235 -243 0
234 235 -243 0
-234 235 243 0
236 -237 244 0
-236 -237 -244 0
236 237 -244 0
-236 237 244 0
238 -239 245 0
-238 -239 -245 0
238 239 -245 0
-238 239 245 0
240 -241 246 0
-240 -241 -246 0
240 241 -246 0
-240 241 246 0
242 -243 247 0
-242 -243 -247 0
242 243 -247 0
-242 243 247 0
244 -245 248 0
-244 -245 -248 0
244 245 -248 0
-244 245 248 0
246 -247 249 0
-246 -247 -249 0
246 247 -249 0
-246 247 249 0
248 249 0
-248 -249 0
1 -5 250 0
-1 -5 -250 0
1 5 -250 0
-1 5 250 0
6 8 251 0
-6 8 -251 0
6 -8 -251 0
-6 -8 251 0
-9 11 252 0
9 11 -252 0
-9 -11 -252 0
9 -11 252 0
-12 14 253 0
12 14 -253 0
-12 -14 -253 0
12 -14 253 0
17 -19 254 0
-17 -19 -254 0
17 19 -254 0
-17 19 254 0
21 22 255 0
-21 22 -255 0
21 -22 -255 0
-21 -22 255 0
-24 25 256 0
24 25 -256 0
-24 -25 -256 0
24 -25 256 0
-27 -29 257 0
27 -29 -257 0
-27 29 -257 0
27 29 257 0
-30 31 258 0
30 31 -258 0
-30 -31 -258 0
30 -31 258 0
-32 -33 259 0
32 -33 -259 0
-32 33 -259 0
32 33 259 0
34 36 260 0
-34 36 -260 0
34 -36 -260 0
-34 -36 260 0
37 38 261 0
-37 38 -261 0
37 -38 -261 0
-37 -38 261 0
39 -44 262 0
-39 -44 -262 0
39 44 -262 0
-39 44 262 0
45 -46 263 0
-45 -46 -263 0
45 46 -263 0
-45 46 263 0
250 -251 264 0
-250 -251 -264 0
250 251 -264 0
-250 251 264 0
252 -253 265 0
-252 -253 -265 0
252 253 -265 0
-252 253 265 0
254 -255 266 0
-254 -255 -266 0
254 255 -266 0
-254 255 266 0
256 -257 267 0
-256 -257 -267 0
256 257 -267 0
-256 257 267 0
258 -259 268 0
-258 -259 -268 0
258 259 -268 0
-258 259 268 0
260 -261 269 0
-260 -261 -269 0
260 261 -269 0
-260 261 269 0
262 -263 270 0
-262 -263 -270 0
262 263 -270 0
-262 263 270 0
264 -265 271 0
-264 -265 -271 0
264 265 -271 0
-264 265 271 0
266 -267 272 0
-266 -267 -272 0
266 267 -272 0
-266 267 272 0
268 -269 273 0
-268 -269 -273 0
268 269 -273 0
-268 269 273 0
270 -271 274 0
-270 -271 -274 0
270 271 -274 0
-270 271 274 0
272 -273 275 0
-272 -273 -275 0
272 273 -275 0
-272 273 275 0
274 275 0
-274 -275 0
2 -3 276 0
-2 -3 -276 0
2 3 -276 0
-2 3 276 0
-4 5 277 0
4 5 -277 0
-4 -5 -277 0
4 -5 277 0
-7 8 278 0
7 8 -278 0
-7 -8 -278 0
7 -8 278 0
-13 -14 279 0
13 -14 -279 0
-13 14 -279 0
13 14 279 0
15 17 280 0
-15 17 -280 0
15 -17 -280 0
-15 -17 280 0
-18 -22 281 0
18 -22 -281 0
-18 22 -281 0
18 22 281 0
-23 -24 282 0
23 -24 -282 0
-23 24 -282 0
23 24 282 0
-25 -26 283 0
25 -26 -283 0
-25 26 -283 0
25 26 283 0
28 -29 284 0
-28 -29 -284 0
28 29 -284 0
-28 29 284 0
31 32 285 0
-31 32 -285 0
31 -32 -285 0
-31 -32 285 0
34 -36 286 0
-34 -36 -286 0
34 36 -286 0
-34 36 286 0
37 -38 287 0
-37 -38 -287 0
37 38 -287 0
-37 38 287 0
-39 40 288 0
39 40 -288 0
-39 -40 -288 0
39 -40 288 0
-44 -50 289 0
44 -50 -289 0
-44 50 -289 0
44 50 289 0
276 -277 290 0
-276 -277 -290 0
276 277 -290 0
-276 277 290 0
278 -279 291 0
-278 -279 -291 0
278 279 -291 0
-278 279 291 0
280 -281 292 0
-280 -281 -292 0
280 281 -292 0
-280 281 292 0
282 -283 293 0
-282 -283 -293 0
282 283 -293 0
-282 283 293 0
284 -285 294 0
-284 -285 -294 0
284 285 -294 0
-284 285 294 0
286 -287 295 0
-286 -287 -295 0
286 287 -295 0
-286 287 295 0
288 -289 296 0
-288 -289 -296 0
288 289 -296 0
-288 289 296 0
290 -291 297 0
-290 -291 -297 0
290 291 -297 0
-290 291 297 0
292 -293 298 0
-292 -293 -298 0
292 293 -298 0
-292 293 298 0
294 -295 299 0
-294 -295 -299 0
294 295 -299 0
-294 295 299 0
296 -297 300 0
-296 -297 -300 0
296 297 -300 0
-296 297 300 0
298 -299 301 0
-298 -299 -301 0
298 299 -301 0
-298 299 301 0
300 301 0
-300 -301 0
1 3 302 0
-1 3 -302 0
1 -3 -302 0
-1 -3 302 0
-5 -8 303 0
5 -8 -303 0
-5 8 -303 0
5 8 303 0
-10 -11 304 0
10 -11 -304 0
-10 11 -304 0
10 11 304 0
-12 -13 305 0
12 -13 -305 0
-12 13 -305 0
12 13 305 0
15 -17 306 0
-15 -17 -306 0
15 17 -306 0
-15 17 306 0
-18 -23 307 0
18 -23 -307 0
-18 23 -307 0
18 23 307 0
-27 -30 308 0
27 -30 -308 0
-27 30 -308 0
27 30 308 0
31 -34 309 0
-31 -34 -309 0
31 34 -309 0
-31 34 309 0
35 37 310 0
-35 37 -310 0
35 -37 -310 0
-35 -37 310 0
-38 39 311 0
38 39 -311 0
-38 -39 -311 0
38 -39 311 0
40 -43 312 0
-40 -43 -312 0
40 43 -312 0
-40 43 312 0
44 -45 313 0
-44 -45 -313 0
44 45 -313 0
-44 45 313 0
-46 48 314 0
46 48 -314 0
-46 -48 -314 0
46 -48 314 0
302 -303 315 0
-302 -303 -315 0
302 303 -315 0
-302 303 315 0
304 -305 316 0
-304 -305 -316 0
304 305 -316 0
-304 305 316 0
306 -307 317 0
-306 -307 -317 0
306 307 -317 0
-306 307 317 0
308 -309 318 0
-308 -309 -318 0
308 309 -318 0
-308 309 318 0
310 -311 319 0
-310 -311 -319 0
310 311 -319 0
-310 311 319 0
312 -313 320 0
-312 -313 -320 0
312 313 -320 0
-312 313 320 0
314 -315 321 0
-314 -315 -321 0
314 315 -321 0
-314 315 321 0
316 -317 322 0
-316 -317 -322 0
316 317 -322 0
-316 317 322 0
318 -319 323 0
-318 -319 -323 0
318 319 -323 0
-318 319 323 0
320 -321 324 0
-320 -321 -324 0
320 321 -324 0
-320 321 324 0
322 -323 325 0
-322 -323 -325 0
322 323 -325 0
-322 323 325 0
324 325 0
-324 -325 0
-1 -3 326 0
1 -3 -326 0
-1 3 -326 0
1 3 326 0
6 7 327 0
-6 7 -327 0
6 -7 -327 0
-6 -7 327 0
8 14 328 0
-8 14 -328 0
8 -14 -328 0
-8 -14 328 0
17 18 329 0
-17 18 -329 0
17 -18 -329 0
-17 -18 329 0
20 21 330 0
-20 21 -330 0
20 -21 -330 0
-20 -21 330 0
-22 23 331 0
22 23 -331 0
-22 -23 -331 0
22 -23 331 0
-24 26 332 0
24 26 -332 0
-24 -26 -332 0
24 -26 332 0
29 31 333 0
-29 31 -333 0
29 -31 -333 0
-29 -31 333 0
34 -35 334 0
-34 -35 -334 0
34 35 -334 0
-34 35 334 0
37 -39 335 0
-37 -39 -335 0
37 39 -335 0
-37 39 335 0
-40 41 336 0
40 41 -336 0
-40 -41 -336 0
40 -41 336 0
-43 45 337 0
43 45 -337 0
-43 -45 -337 0
43 -45 337 0
-46 47 338 0
46 47 -338 0
-46 -47 -338 0
46 -47 338 0
48 -49 339 0
-48 -49 -339 0
48 49 -339 0
-48 49 339 0
326 -327 340 0
-326 -327 -340 0
326 327 -340 0
-326 327 340 0
328 -329 341 0
-328 -329 -341 0
328 329 -341 0
-328 329 341 0
330 -331 342 0
-330 -331 -342 0
330 331 -342 0
-330 331 342 0
332 -333 343 0
-332 -333 -343 0
332 333 -343 0
-332 333 343 0
334 -335 344 0
-334 -335 -344 0
334 335 -344 0
-334 335 344 0
336 -337 345 0
-336 -337 -345 0
336 337 -345 0
-336 337 345 0
338 -339 346 0
-338 -339 -346 0
338 339 -346 0
-338 339 346 0
340 -341 347 0
-340 -341 -347 0
340 341 -347 0
-340 341 347 0
342 -343 348 0
-342 -343 -348 0
342 343 -348 0
-342 343 348 0
344 -345 349 0
-344 -345 -349 0
344 345 -349 0
-344 345 349 0
346 -347 350 0
-346 -347 -350 0
346 347 -350 0
-346 347 350 0
348 -349 351 0
-348 -349 -351 0
348 349 -351 0
-348 349 351 0
350 351 0
-350 -351 0
1 2 352 0
-1 2 -352 0
1 -2 -352 0
-1 -2 352 0
4 8 353 0
-4 8 -353 0
4 -8 -353 0
-4 -8 353 0
10 -11 354 0
-10 -11 -354 0
10 11 -354 0
-10 11 354 0
12 -13 355 0
-12 -13 -355 0
12 13 -355 0
-12 13 355 0
-14 15 356 0
14 15 -356 0
-14 -15 -356 0
14 -15 356 0
16 -17 357 0
-16 -17 -357 0
16 17 -357 0
-16 17 357 0
25 -31 358 0
-25 -31 -358 0
25 31 -358 0
-25 31 358 0
34 -36 359 0
-34 -36 -359 0
34 36 -359 0
-34 36 359 0
-37 39 360 0
37 39 -360 0
-37 -39 -360 0
37 -39 360 0
-40 -42 361 0
40 -42 -361 0
-40 42 -361 0
40 42 361 0
43 -44 362 0
-43 -44 -362 0
43 44 -362 0
-43 44 362 0
-47 -48 363 0
47 -48 -363 0
-47 48 -363 0
47 48 363 0
352 -353 364 0
-352 -353 -364 0
352 353 -364 0
-352 353 364 0
354 -355 365 0
-354 -355 -365 0
354 355 -365 0
-354 355 365 0
356 -357 366 0
-356 -357 -366 0
356 357 -366 0
-356 357 366 0
358 -359 367 0
-358 -359 -367 0
358 359 -367 0
-358 359 367 0
360 -361 368 0
-360 -361 -368 0
360 361 -368 0
-360 361 368 0
362 -363 369 0
-362 -363 -369 0
362 363 -369 0
-362 363 369 0
364 -365 370 0
-364 -365 -370 0
364 365 -370 0
-364 365 370 0
366 -367 371 0
-366 -367 -371 0
366 367 -371 0
-366 367 371 0
368 -369 372 0
-368 -369 -372 0
368 369 -372 0
-368 369 372 0
-370 -371 372 0
370 -371 -372 0
-370 371 -372 0
370 371 372 0
-2 3 373 0
2 3 -373 0
-2 -3 -373 0
2 -3 373 0
-4 -6 374 0
4 -6 -374 0
-4 6 -374 0
4 6 374 0
8 -16 375 0
-8 -16 -375 0
8 16 -375 0
-8 16 375 0
18 23 376 0
-18 23 -376 0
18 -23 -376 0
-18 -23 376 0
-24 -27 377 0
24 -27 -377 0
-24 27 -377 0
24 27 377 0
28 30 378 0
-28 30 -378 0
28 -30 -378 0
-28 -30 378 0
-31 -33 379 0
31 -33 -379 0
-31 33 -379 0
31 33 379 0
-34 35 380 0
34 35 -380 0
-34 -35 -380 0
34 -35 380 0
36 37 381 0
-36 37 -381 0
36 -37 -381 0
-36 -37 381 0
-38 44 382 0
38 44 -382 0
-38 -44 -382 0
38 -44 382 0
-46 47 383 0
46 47 -383 0
-46 -47 -383 0
46 -47 383 0
48 -49 384 0
-48 -49 -384 0
48 49 -384 0
-48 49 384 0
373 -374 385 0
-373 -374 -385 0
373 374 -385 0
-373 374 385 0
375 -376 386 0
-375 -376 -386 0
375 376 -386 0
-375 376 386 0
377 -378 387 0
-377 -378 -387 0
377 378 -387 0
-377 378 387 0
379 -380 388 0
-379 -380 -388 0
379 380 -388 0
-379 380 388 0
381 -382 389 0
-381 -382 -389 0
381 382 -389 0
-381 382 389 0
383 -384 390 0
-383 -384 -390 0
383 384 -390 0
-383 384 390 0
385 -386 391 0
-385 -386 -391 0
385 386 -391 0
-385 386 391 0
387 -388 392 0
-387 -388 -392 0
387 388 -392 0
-387 388 392 0
389 -390 393 0
-389 -390 -393 0
389 390 -393 0
-389 390 393 0
-391 -392 393 0
391 -392 -393 0
-391 392 -393 0
391 392 393 0
1 3 394 0
-1 3 -394 0
1 -3 -394 0
-1 -3 394 0
-7 -9 395 0
7 -9 -395 0
-7 9 -395 0
7 9 395 0
-11 21 396 0
11 21 -396 0
-11 -21 -396 0
11 -21 396 0
22 -23 397 0
-22 -23 -397 0
22 23 -397 0
-22 23 397 0
24 25 398 0
-24 25 -398 0
24 -25 -398 0
-24 -25 398 0
-26 29 399 0
26 29 -399 0
-26 -29 -399 0
26 -29 399 0
34 -35 400 0
-34 -35 -400 0
34 35 -400 0
-34 35 400 0
37 -40 401 0
-37 -40 -401 0
37 40 -401 0
-37 40 401 0
-41 42 402 0
41 42 -402 0
-41 -42 -402 0
41 -42 402 0
-43 -44 403 0
43 -44 -403 0
-43 44 -403 0
43 44 403 0
45 -47 404 0
-45 -47 -404 0
45 47 -404 0
-45 47 404 0
393 -394 405 0
-393 -394 -405 0
393 394 -405 0
-393 394 405 0
395 -396 406 0
-395 -396 -406 0
395 396 -406 0
-395 396 406 0
397 -398 407 0
-397 -398 -407 0
397 398 -407 0
-397 398 407 0
399 -400 408 0
-399 -400 -408 0
399 400 -408 0
-399 400 408 0
401 -402 409 0
-401 -402 -409 0
401 402 -409 0
-401 402 409 0
403 -404 410 0
-403 -404 -410 0
403 404 -410 0
-403 404 410 0
405 -406 411 0
-405 -406 -411 0
405 406 -411 0
-405 406 411 0
407 -408 412 0
-407 -408 -412 0
407 408 -412 0
-407 408 412 0
409 -410 413 0
-409 -410 -413 0
409 410 -413 0
-409 410 413 0
-411 -412 413 0
411 -412 -413 0
-411 412 -413 0
411 412 413 0
1 4 414 0
-1 4 -414 0
1 -4 -414 0
-1 -4 414 0
7 11 415 0
-7 11 -415 0
7 -11 -415 0
-7 -11 415 0
-14 17 416 0
14 17 -416 0
-14 -17 -416 0
14 -17 416 0
21 -22 417 0
-21 -22 -417 0
21 22 -417 0
-21 22 417 0
23 25 418 0
-23 25 -418 0
23 -25 -418 0
-23 -25 418 0
-26 -27 419 0
26 -27 -419 0
-26 27 -419 0
26 27 419 0
-28 31 420 0
28 31 -420 0
-28 -31 -420 0
28 -31 420 0
-35 -39 421 0
35 -39 -421 0
-35 39 -421 0
35 39 421 0
-40 41 422 0
40 41 -422 0
-40 -41 -422 0
40 -41 422 0
-42 -46 423 0
42 -46 -423 0
-42 46 -423 0
42 46 423 0
-48 50 424 0
48 50 -424 0
-48 -50 -424 0
48 -50 424 0
414 -415 425 0
-414 -415 -425 0
414 415 -425 0
-414 415 425 0
416 -417 426 0
-416 -417 -426 0
416 417 -426 0
-416 417 426 0
418 -419 427 0
-418 -419 -427 0
418 419 -427 0
-418 419 427 0
420 -421 428 0
-420 -421 -428 0
420 421 -428 0
-420 421 428 0
422 -423 429 0
-422 -423 -429 0
422 423 -429 0
-422 423 429 0
424 -425 430 0
-424 -425 -430 0
424 425 -430 0
-424 425 430 0
426 -427 431 0
-426 -427 -431 0
426 427 -431 0
-426 427 431 0
428 -429 432 0
-428 -429 -432 0
428 429 -432 0
-428 429 432 0
-430 -431 432 0
430 -431 -432 0
-430 431 -432 0
430 431 432 0
-1 5 433 0
1 5 -433 0
-1 -5 -433 0
1 -5 433 0
6 -7 434 0
-6 -7 -434 0
6 7 -434 0
-6 7 434 0
8 10 435 0
-8 10 -435 0
8 -10 -435 0
-8 -10 435 0
11 12 436 0
-11 12 -436 0
11 -12 -436 0
-11 -12 436 0
-14 17 437 0
14 17 -437 0
-14 -17 -437 0
14 -17 437 0
-19 21 438 0
19 21 -438 0
-19 -21 -438 0
19 -21 438 0
23 24 439 0
-23 24 -439 0
23 -24 -439 0
-23 -24 439 0
26 29 440 0
-26 29 -440 0
26 -29 -440 0
-26 -29 440 0
30 32 441 0
-30 32 -441 0
30 -32 -441 0
-30 -32 441 0
36 -37 442 0
-36 -37 -442 0
36 37 -442 0
-36 37 442 0
-38 -40 443 0
38 -40 -443 0
-38 40 -443 0
38 40 443 0
-44 47 444 0
44 47 -444 0
-44 -47 -444 0
44 -47 444 0
432 -433 445 0
-432 -433 -445 0
432 433 -445 0
-432 433 445 0
434 -435 446 0
-434 -435 -446 0
434 435 -446 0
-434 435 446 0
436 -437 447 0
-436 -437 -447 0
436 437 -447 0
-436 437 447 0
438 -439 448 0
-438 -439 -448 0
438 439 -448 0
-438 439 448 0
440 -441 449 0
-440 -441 -449 0
440 441 -449 0
-440 441 449 0
442 -443 450 0
-442 -443 -450 0
442 443 -450 0
-442 443 450 0
444 -445 451 0
-444 -445 -451 0
444 445 -451 0
-444 445 451 0
446 -447 452 0
-446 -447 -452 0
446 447 -452 0
-446 447 452 0
448 -449 453 0
-448 -449 -453 0
448 449 -453 0
-448 449 453 0
450 -451 454 0
-450 -451 -454 0
450 451 -454 0
-450 451 454 0
452 -453 455 0
-452 -453 -455 0
452 453 -455 0
-452 453 455 0
454 455 0
-454 -455 0
1 -3 456 0
-1 -3 -456 0
1 3 -456 0
-1 3 456 0
-6 -7 457 0
6 -7 -457 0
-6 7 -457 0
6 7 457 0
-9 10 458 0
9 10 -458 0
-9 -10 -458 0
9 -10 458 0
-11 12 459 0
11 12 -459 0
-11 -12 -459 0
11 -12 459 0
-14 -15 460 0
14 -15 -460 0
-14 15 -460 0
14 15 460 0
-16 18 461 0
16 18 -461 0
-16 -18 -461 0
16 -18 461 0
19 -22 462 0
-19 -22 -462 0
19 22 -462 0
-19 22 462 0
23 26 463 0
-23 26 -463 0
23 -26 -463 0
-23 -26 463 0
27 29 464 0
-27 29 -464 0
27 -29 -464 0
-27 -29 464 0
30 -31 465 0
-30 -31 -465 0
30 31 -465 0
-30 31 465 0
35 -36 466 0
-35 -36 -466 0
35 36 -466 0
-35 36 466 0
-37 -38 467 0
37 -38 -467 0
-37 38 -467 0
37 38 467 0
39 41 468 0
-39 41 -468 0
39 -41 -468 0
-39 -41 468 0
-44 48 469 0
44 48 -469 0
-44 -48 -469 0
44 -48 469 0
456 -457 470 0
-456 -457 -470 0
456 457 -470 0
-456 457 470 0
458 -459 471 0
-458 -459 -471 0
458 459 -471 0
-458 459 471 0
460 -461 472 0
-460 -461 -472 0
460 461 -472 0
-460 461 472 0
462 -463 473 0
-462 -463 -473 0
462 463 -473 0
-462 463 473 0
464 -465 474 0
-464 -465 -474 0
464 465 -474 0
-464 465 474 0
466 -467 475 0
-466 -467 -475 0
466 467 -475 0
-466 467 475 0
468 -469 476 0
-468 -469 -476 0
468 469 -476 0
-468 469 476 0
470 -471 477 0
-470 -471 -477 0
470 471 -477 0
-470 471 477 0
472 -473 478 0
-472 -473 -478 0
472 473 -478 0
-472 473 478 0
474 -475 479 0
-474 -475 -479 0
474 475 -479 0
-474 475 479 0
476 -477 480 0
-476 -477 -480 0
476 477 -480 0
-476 477 480 0
478 -479 481 0
-478 -479 -481 0
478 479 -481 0
-478 479 481 0
480 481 0
-480 -481 0
2 -3 482 0
-2 -3 -482 0
2 3 -482 0
-2 3 482 0
-8 10 483 0
8 10 -483 0
-8 -10 -483 0
8 -10 483 0
-14 17 484 0
14 17 -484 0
-14 -17 -484 0
14 -17 484 0
-18 -21 485 0
18 -21 -485 0
-18 21 -485 0
18 21 485 0
22 23 486 0
-22 23 -486 0
22 -23 -486 0
-22 -23 486 0
-24 25 487 0
24 25 -487 0
-24 -25 -487 0
24 -25 487 0
-26 30 488 0
26 30 -488 0
-26 -30 -488 0
26 -30 488 0
31 32 489 0
-31 32 -489 0
31 -32 -489 0
-31 -32 489 0
-34 37 490 0
34 37 -490 0
-34 -37 -490 0
34 -37 490 0
38 -39 491 0
-38 -39 -491 0
38 39 -491 0
-38 39 491 0
-40 41 492 0
40 41 -492 0
-40 -41 -492 0
40 -41 492 0
44 46 493 0
-44 46 -493 0
44 -46 -493 0
-44 -46 493 0
-49 -50 494 0
49 -50 -494 0
-49 50 -494 0
49 50 494 0
482 -483 495 0
-482 -483 -495 0
482 483 -495 0
-482 483 495 0
484 -485 496 0
-484 -485 -496 0
484 485 -496 0
-484 485 496 0
486 -487 497 0
-486 -487 -497 0
486 487 -497 0
-486 487 497 0
488 -489 498 0
-488 -489 -498 0
488 489 -498 0
-488 489 498 0
490 -491 499 0
-490 -491 -499 0
490 491 -499 0
-490 491 499 0
492 -493 500 0
-492 -493 -500 0
492 493 -500 0
-492 493 500 0
494 -495 501 0
-494 -495 -501 0
494 495 -501 0
-494 495 501 0
496 -497 502 0
-496 -497 -502 0
496 497 -502 0
-496 497 502 0
498 -499 503 0
-498 -499 -503 0
498 499 -503 0
-498 499 503 0
500 -501 504 0
-500 -501 -504 0
500 501 -504 0
-500 501 504 0
502 -503 505 0
-502 -503 -505 0
502 503 -505 0
-502 503 505 0
504 505 0
-504 -505 0
-12 506 0
-24 506 0
-12 -24 507 0
-23 506 0
-12 -23 507 0
-24 -23 507 0
-12 -24 -23 508 0
-22 509 0
-21 509 0
-22 -21 510 0
-20 509 0
-22 -20 510 0
-21 -20 510 0
-22 -21 -20 511 0
-506 512 0
-507 513 0
-508 514 0
-509 512 0
-510 513 0
-511 514 0
-506 -509 513 0
-506 -510 514 0
-506 -511 515 0
-507 -509 514 0
-507 -510 515 0
-507 -511 516 0
-508 -509 515 0
-508 -510 516 0
-508 -511 517 0
-19 518 0
-18 518 0
-19 -18 519 0
-17 518 0
-19 -17 519 0
-18 -17 519 0
-19 -18 -17 520 0
-16 521 0
-15 521 0
-16 -15 522 0
-14 521 0
-16 -14 522 0
-15 -14 522 0
-16 -15 -14 523 0
-518 524 0
-519 525 0
-520 526 0
-521 524 0
-522 525 0
-523 526 0
-518 -521 525 0
-518 -522 526 0
-518 -523 527 0
-519 -521 526 0
-519 -522 527 0
-519 -523 528 0
-520 -521 527 0
-520 -522 528 0
-520 -523 529 0
-512 530 0
-514 531 0
-516 532 0
-524 530 0
-526 531 0
-528 532 0
-512 -524 531 0
-512 -526 532 0
-512 -528 533 0
-514 -524 532 0
-514 -526 533 0
-514 -528 534 0
-516 -524 533 0
-516 -526 534 0
-516 -528 535 0
-513 536 0
-515 537 0
-517 538 0
-525 536 0
-527 537 0
-529 538 0
-513 -525 537 0
-513 -527 538 0
-513 -529 539 0
-515 -525 538 0
-515 -527 539 0
-515 -529 540 0
-517 -525 539 0
-517 -527 540 0
-517 -529 541 0
-531 542 0
-536 542 0
-531 -536 543 0
-532 544 0
-537 544 0
-532 -537 545 0
-533 546 0
-538 546 0
-533 -538 547 0
-534 548 0
-539 548 0
-534 -539 549 0
-535 550 0
-540 550 0
-535 -540 551 0
-13 552 0
-25 552 0
-13 -25 553 0
-11 552 0
-13 -11 553 0
-25 -11 553 0
-13 -25 -11 554 0
-10 555 0
-9 555 0
-10 -9 556 0
-8 555 0
-10 -8 556 0
-9 -8 556 0
-10 -9 -8 557 0
-552 558 0
-553 559 0
-554 560 0
-555 558 0
-556 559 0
-557 560 0
-552 -555 559 0
-552 -556 560 0
-552 -557 561 0
-553 -555 560 0
-553 -556 561 0
-553 -557 562 0
-554 -555 561 0
-554 -556 562 0
-554 -557 563 0
-7 564 0
-6 564 0
-7 -6 565 0
-5 564 0
-7 -5 565 0
-6 -5 565 0
-7 -6 -5 566 0
-4 567 0
-3 567 0
-4 -3 568 0
-2 567 0
-4 -2 568 0
-3 -2 568 0
-4 -3 -2 569 0
-564 570 0
-565 571 0
-566 572 0
-567 570 0
-568 571 0
-569 572 0
-564 -567 571 0
-564 -568 572 0
-564 -569 573 0
-565 -567 572 0
-565 -568 573 0
-565 -569 574 0
-566 -567 573 0
-566 -568 574 0
-566 -569 575 0
-558 576 0
-560 577 0
-562 578 0
-570 576 0
-572 577 0
-574 578 0
-558 -570 577 0
-558 -572 578 0
-558 -574 579 0
-560 -570 578 0
-560 -572 579 0
-560 -574 580 0
-562 -570 579 0
-562 -572 580 0
-562 -574 581 0
-559 582 0
-561 583 0
-563 584 0
-571 582 0
-573 583 0
-575 584 0
-559 -571 583 0
-559 -573 584 0
-559 -575 585 0
-561 -571 584 0
-561 -573 585 0
-561 -575 586 0
-563 -571 585 0
-563 -573 586 0
-563 -575 587 0
-577 588 0
-582 588 0
-577 -582 589 0
-578 590 0
-583 590 0
-578 -583 591 0
-579 592 0
-584 592 0
-579 -584 593 0
-580 594 0
-585 594 0
-580 -585 595 0
-581 596 0
-586 596 0
-581 -586 597 0
-1 598 0
-37 598 0
-1 -37 599 0
-49 598 0
-1 -49 599 0
-37 -49 599 0
-1 -37 -49 600 0
-48 601 0
-47 601 0
-48 -47 602 0
-46 601 0
-48 -46 602 0
-47 -46 602 0
-48 -47 -46 603 0
-598 604 0
-599 605 0
-600 606 0
-601 604 0
-602 605 0
-603 606 0
-598 -601 605 0
-598 -602 606 0
-598 -603 607 0
-599 -601 606 0
-599 -602 607 0
-599 -603 608 0
-600 -601 607 0
-600 -602 608 0
-600 -603 609 0
-45 610 0
-44 610 0
-45 -44 611 0
-43 610 0
-45 -43 611 0
-44 -43 611 0
-45 -44 -43 612 0
-42 613 0
-41 613 0
-42 -41 614 0
-40 613 0
-42 -40 614 0
-41 -40 614 0
-42 -41 -40 615 0
-610 616 0
-611 617 0
-612 618 0
-613 616 0
-614 617 0
-615 618 0
-610 -613 617 0
-610 -614 618 0
-610 -615 619 0
-611 -613 618 0
-611 -614 619 0
-611 -615 620 0
-612 -613 619 0
-612 -614 620 0
-612 -615 621 0
-604 622 0
-606 623 0
-608 624 0
-616 622 0
-618 623 0
-620 624 0
-604 -616 623 0
-604 -618 624 0
-604 -620 625 0
-606 -616 624 0
-606 -618 625 0
-606 -620 626 0
-608 -616 625 0
-608 -618 626 0
-608 -620 627 0
-605 628 0
-607 629 0
-609 630 0
-617 628 0
-619 629 0
-621 630 0
-605 -617 629 0
-605 -619 630 0
-605 -621 631 0
-607 -617 630 0
-607 -619 631 0
-607 -621 632 0
-609 -617 631 0
-609 -619 632 0
-609 -621 633 0
-623 634 0
-628 634 0
-623 -628 635 0
-624 636 0
-629 636 0
-624 -629 637 0
-625 638 0
-630 638 0
-625 -630 639 0
-626 640 0
-631 640 0
-626 -631 641 0
-627 642 0
-632 642 0
-627 -632 643 0
-39 644 0
-38 644 0
-39 -38 645 0
-50 644 0
-39 -50 645 0
-38 -50 645 0
-39 -38 -50 646 0
-36 647 0
-35 647 0
-36 -35 648 0
-34 647 0
-36 -34 648 0
-35 -34 648 0
-36 -35 -34 649 0
-644 650 0
-645 651 0
-646 652 0
-647 650 0
-648 651 0
-649 652 0
-644 -647 651 0
-644 -648 652 0
-644 -649 653 0
-645 -647 652 0
-645 -648 653 0
-645 -649 654 0
-646 -647 653 0
-646 -648 654 0
-646 -649 655 0
-33 656 0
-32 656 0
-33 -32 657 0
-31 656 0
-33 -31 657 0
-32 -31 657 0
-33 -32 -31 658 0
-30 659 0
-29 659 0
-30 -29 660 0
-28 661 0
-27 661 0
-28 -27 662 0
-26 661 0
-28 -26 662 0
-27 -26 662 0
-28 -27 -26 663 0
-659 664 0
-660 665 0
-661 664 0
-662 665 0
-663 666 0
-659 -661 665 0
-659 -662 666 0
-659 -663 667 0
-660 -661 666 0
-660 -662 667 0
-660 -663 668 0
-656 669 0
-657 670 0
-658 671 0
-664 669 0
-665 670 0
-666 671 0
-667 672 0
-668 673 0
-656 -664 670 0
-656 -665 671 0
-656 -666 672 0
-656 -667 673 0
-656 -668 674 0
-657 -664 671 0
-657 -665 672 0
-657 -666 673 0
-657 -667 674 0
-657 -668 675 0
-658 -664 672 0
-658 -665 673 0
-658 -666 674 0
-658 -667 675 0
-658 -668 676 0
-650 677 0
-652 678 0
-654 679 0
-669 677 0
-671 678 0
-673 679 0
-675 680 0
-650 -669 678 0
-650 -671 679 0
-650 -673 680 0
-650 -675 681 0
-652 -669 679 0
-652 -671 680 0
-652 -673 681 0
-652 -675 682 0
-654 -669 680 0
-654 -671 681 0
-654 -673 682 0
-654 -675 683 0
-651 684 0
-653 685 0
-655 686 0
-670 684 0
-672 685 0
-674 686 0
-676 687 0
-651 -670 685 0
-651 -672 686 0
-651 -674 687 0
-651 -676 688 0
-653 -670 686 0
-653 -672 687 0
-653 -674 688 0
-653 -676 689 0
-655 -670 687 0
-655 -672 688 0
-655 -674 689 0
-655 -676 690 0
-678 691 0
-684 691 0
-678 -684 692 0
-679 693 0
-685 693 0
-679 -685 694 0
-680 695 0
-686 695 0
-680 -686 696 0
-681 697 0
-687 697 0
-681 -687 698 0
-682 699 0
-688 699 0
-682 -688 700 0
-683 701 0
-689 701 0
-683 -689 702 0
-622 703 0
-637 704 0
-641 705 0
-677 703 0
-694 704 0
-698 705 0
-702 706 0
-622 -677 704 0
-622 -694 705 0
-622 -698 706 0
-622 -702 707 0
-637 -677 705 0
-637 -694 706 0
-637 -698 707 0
-641 -677 706 0
-641 -694 707 0
-635 708 0
-639 709 0
-643 710 0
-692 708 0
-696 709 0
-700 710 0
-635 -692 709 0
-635 -696 710 0
-635 -700 711 0
-639 -692 710 0
-639 -696 711 0
-643 -692 711 0
-704 712 0
-708 712 0
-704 -708 713 0
-705 714 0
-709 714 0
-705 -709 715 0
-706 716 0
-710 716 0
-706 -710 717 0
-707 718 0
-711 718 0
-707 -711 719 0
-634 720 0
-638 721 0
-642 722 0
-691 720 0
-695 721 0
-699 722 0
-690 723 0
-634 -691 721 0
-634 -695 722 0
-634 -699 723 0
-634 -690 724 0
-638 -691 722 0
-638 -695 723 0
-638 -699 724 0
-642 -691 723 0
-642 -695 724 0
-636 725 0
-640 726 0
-633 727 0
-693 725 0
-697 726 0
-701 727 0
-636 -693 726 0
-636 -697 727 0
-636 -701 728 0
-640 -693 727 0
-640 -697 728 0
-633 -693 728 0
-721 729 0
-725 729 0
-721 -725 730 0
-722 731 0
-726 731 0
-722 -726 732 0
-723 733 0
-727 733 0
-723 -727 734 0
-724 735 0
-728 735 0
-712 736 0
-720 736 0
-712 -720 737 0
-713 738 0
-729 738 0
-713 -729 739 0
-714 740 0
-730 740 0
-714 -730 741 0
-715 742 0
-731 742 0
-715 -731 743 0
-716 744 0
-732 744 0
-716 -732 745 0
-717 746 0
-733 746 0
-717 -733 747 0
-718 748 0
-734 748 0
-718 -734 749 0
-719 750 0
-735 750 0
-576 751 0
-591 752 0
-595 753 0
-703 751 0
-739 752 0
-743 753 0
-747 754 0
-576 -703 752 0
-576 -739 753 0
-576 -743 754 0
-576 -747 755 0
-591 -703 753 0
-591 -739 754 0
-591 -743 755 0
-595 -703 754 0
-595 -739 755 0
-589 756 0
-593 757 0
-597 758 0
-737 756 0
-741 757 0
-745 758 0
-749 759 0
-589 -737 757 0
-589 -741 758 0
-589 -745 759 0
-593 -737 758 0
-593 -741 759 0
-597 -737 759 0
-752 760 0
-756 760 0
-752 -756 761 0
-753 762 0
-757 762 0
-753 -757 763 0
-754 764 0
-758 764 0
-754 -758 765 0
-755 766 0
-759 766 0
-755 -759 767 0
-588 768 0
-592 769 0
-596 770 0
-736 768 0
-740 769 0
-744 770 0
-748 771 0
-588 -736 769 0
-588 -740 770 0
-588 -744 771 0
-588 -748 772 0
-592 -736 770 0
-592 -740 771 0
-592 -744 772 0
-596 -736 771 0
-596 -740 772 0
-590 773 0
-594 774 0
-587 775 0
-738 773 0
-742 774 0
-746 775 0
-750 776 0
-590 -738 774 0
-590 -742 775 0
-590 -746 776 0
-594 -738 775 0
-594 -742 776 0
-587 -738 776 0
-769 777 0
-773 777 0
-769 -773 778 0
-770 779 0
-774 779 0
-770 -774 780 0
-771 781 0
-775 781 0
-771 -775 782 0
-772 783 0
-776 783 0
-760 784 0
-768 784 0
-760 -768 785 0
-761 786 0
-777 786 0
-761 -777 787 0
-762 788 0
-778 788 0
-762 -778 789 0
-763 790 0
-779 790 0
-763 -779 791 0
-764 792 0
-780 792 0
-764 -780 793 0
-765 794 0
-781 794 0
-765 -781 795 0
-766 796 0
-782 796 0
-766 -782 797 0
-767 798 0
-783 798 0
-530 799 0
-545 800 0
-549 801 0
-751 799 0
-787 800 0
-791 801 0
-795 802 0
-530 -751 800 0
-530 -787 801 0
-530 -791 802 0
-530 -795 803 0
-545 -751 801 0
-545 -787 802 0
-545 -791 803 0
-549 -751 802 0
-549 -787 803 0
-543 804 0
-547 805 0
-551 806 0
-785 804 0
-789 805 0
-793 806 0
-797 807 0
-543 -785 805 0
-543 -789 806 0
-543 -793 807 0
-547 -785 806 0
-547 -789 807 0
-551 -785 807 0
-800 808 0
-804 808 0
-800 -804 809 0
-801 810 0
-805 810 0
-801 -805 811 0
-802 812 0
-806 812 0
-802 -806 813 0
-803 814 0
-807 814 0
-803 -807 815 0
-542 816 0
-546 817 0
-550 818 0
-784 816 0
-788 817 0
-792 818 0
-796 819 0
-542 -784 817 0
-542 -788 818 0
-542 -792 819 0
-542 -796 820 0
-546 -784 818 0
-546 -788 819 0
-546 -792 820 0
-550 -784 819 0
-550 -788 820 0
-544 821 0
-548 822 0
-541 823 0
-786 821 0
-790 822 0
-794 823 0
-798 824 0
-544 -786 822 0
-544 -790 823 0
-544 -794 824 0
-548 -786 823 0
-548 -790 824 0
-541 -786 824 0
-817 825 0
-821 825 0
-817 -821 826 0
-818 827 0
-822 827 0
-818 -822 828 0
-819 829 0
-823 829 0
-819 -823 830 0
-820 831 0
-824 831 0
-808 832 0
-816 832 0
-808 -816 833 0
-809 834 0
-825 834 0
-809 -825 835 0
-810 836 0
-826 836 0
-810 -826 837 0
-811 838 0
-827 838 0
-811 -827 839 0
-812 840 0
-828 840 0
-812 -828 841 0
-813 842 0
-829 842 0
-813 -829 843 0
-814 844 0
-830 844 0
-814 -830 845 0
-815 846 0
-831 846 0
-846 0
